#Initialization
units metal
dimension 3
atom_style atomic 
read_data pos.in

#Interatomic potentials - DeepMD 
pair_style	deepmd ../train/1/graph1.pb ../train/2/graph2.pb ../train/3/graph3.pb 
pair_coeff * *

#MD parameters
timestep 0.0005 #ps 
velocity all create 330.0 1 mom yes rot yes dist gaussian 

#Run MD - equil at 330K
run_style verlet #Velocity verlet
fix 1 all nvt temp 330 330 0.1 #NH thermostat - 330K with 100 fs frequency
thermo_style custom step temp pe etotal press #Setting printing
thermo 100 #Ouputing thermodynamic properties
dump 1 all atom 100 pos.lammpstrj 
timer timeout 2:00:00 every 100
run 20000000 #10 ns

write_restart lammps.restart
