&control
   calculation='scf'
   prefix='ana',
   pseudo_dir='./',
   outdir='./out'
   restart_mode='from_scratch'
   nstep=20000
   disk_io='none'
   max_seconds=14400
   tprnfor=.true.
   tstress=.true.
/
&system
   ibrav=8
   a=10.247
   b=11.313
   c=36.8015
   nat=219
   ntyp=3,
   ecutwfc=110
   input_dft='SCAN'
/
&electrons
   electron_maxstep = 1000
   mixing_beta = 0.2
/
&ions
/
&cell
/
ATOMIC_SPECIES
H   1.0  H.tm.pbe.UPF 
O   1.0  O.tm.pbe.UPF 
Ti  1.0  Ti.pbe-sp-rrkj.UPF 
ATOMIC_POSITIONS {angstrom}
O    3.05195623   3.79887146   7.58979415
O    3.05194599   0.02820783   7.58972055
O    8.17556895   1.91362789   7.59012537
O    3.05190500   7.56992426   7.58935254
O    8.17522055   5.68436392   7.58927893
O    8.17514882   9.45560903   7.58909493
O    0.92861388   1.91393334   8.22237514
Ti    1.43970350   0.02858659   8.43516141
Ti    4.22071881   0.02841543   9.02229254
O    4.61638622   1.91395597   9.02151971
O    4.59026661   0.02967423  11.05579623
O    2.36678033   0.02961461   9.95281847
Ti    2.81228915   0.03096832  11.87742651
O    2.40768636   1.91596968  11.94366921
Ti    1.43970350   3.79926742   8.43527182
Ti    4.22077004   3.79914297   9.02232934
O    4.59029735   3.80036478  11.05579623
O    2.36683157   3.79985569   9.95289207
Ti    2.81220717   3.80137163  11.87738971
O    6.05216512   0.02852573   8.22222793
O    6.05220610   3.79927873   8.22237514
Ti    9.34423930   1.91380890   9.02302857
Ti    6.56355190   1.91388809   8.43578704
O    9.73966078   0.02849485   9.02107809
O    9.71454539   1.91499676  11.05741549
O    7.49098737   1.91462343   9.95333369
Ti    7.93795127   1.91602625  11.87827295
O    7.53173969   0.03055675  11.94333800
O    9.73973251   3.79948236   9.02133570
O    7.53172945   3.80121325  11.94330120
O    0.92863950   5.68483907   8.22208073
O    0.92858314   9.45602761   8.22178631
O    4.61622226   5.68490694   9.02111489
O    2.40739944   5.68687541  11.94249157
Ti    1.43963177   7.57046728   8.43479340
Ti    4.22071881   7.57027496   9.02188772
O    4.61620177   9.45603893   9.02100449
O    4.59010266   7.57147414  11.05517060
O    2.36661638   7.57145151   9.95241365
Ti    2.81192026   7.57271857  11.87713210
O    2.40740969   9.45812052  11.94252837
Ti    6.56302930   9.45603893   8.43490380
O    6.05208314   7.57039940   8.22204392
Ti    9.34415732   5.68475987   9.02166692
Ti    6.56308054   5.68478250   8.43501420
O    9.71387933   5.68617400  11.05564902
O    7.49048527   5.68551785   9.95248726
Ti    7.93581989   5.68688672  11.87727931
Ti    9.34409584   9.45588055   9.02144611
O    9.73952757   7.57052384   9.02045247
O    9.71389983   9.45703447  11.05557542
O    7.49051601   9.45698922   9.95234005
Ti    7.93591211   9.45833547  11.87716890
O    7.53116586   7.57242443  11.94249157
Ti    0.55116154   1.91576605  12.63428616
O    0.93529800   0.03067294  12.54806025
O    0.89857070   1.91762138  14.59098512
O    3.85540301   0.03220607  13.42183826
Ti    4.19834960   0.03412238  15.35303378
Ti    1.95715651   1.91865086  16.18235558
O    3.80438320   1.91866217  15.45390669
O    2.34421644   0.03360798  16.06786611
O    0.93530722   3.80153002  12.54806025
O    3.85539276   3.80195991  13.42176466
Ti    4.19809343   3.80369080  15.35270256
O    2.34416520   3.80399625  16.06764530
Ti    5.67394835   0.03066524  12.63016440
O    8.97982524   1.91701048  13.42408315
O    6.05918431   1.91599231  12.54710341
O    6.02020472   0.03280646  14.58712096
Ti    9.32678866   1.91871874  15.35572029
Ti    7.07727500   0.03408799  16.17183035
O    8.92924605   0.03368276  15.45541555
O    7.46822879   1.91867349  16.06576843
Ti    5.67404057   3.80068154  12.63005399
O    6.02017398   3.80225405  14.58701055
Ti    7.07740821   3.80300071  16.17146234
O    8.92924605   3.80346454  15.45541555
Ti    0.55021779   5.68667177  12.62983318
O    0.89690556   5.68843660  14.58690015
Ti    1.95426685   5.68930770  16.17109432
O    3.80370689   5.68938689  15.45169860
Ti    0.55018500   9.45797345  12.62986998
O    0.93503670   7.57262806  12.54736102
O    0.89693835   9.46005504  14.58701055
O    3.85505461   7.57366886  13.42106543
Ti    4.19769380   7.57552419  15.35273937
Ti    1.95418488   9.46118634  16.17138873
O    3.80369665   9.46102796  15.45184580
O    2.34329421   7.57537712  16.06565802
O    8.97888252   5.68759944  13.42191187
O    6.05871295   5.68681884  12.54688260
Ti    9.32197257   5.68926245  15.35340179
O    7.46650729   5.68921720  16.06315552
Ti    5.67366143   7.57224342  12.62913395
O    8.97890301   9.45939889  13.42187506
O    6.05866171   9.45824496  12.54666179
O    6.01969237   7.57422320  14.58564890
Ti    9.32209553   9.46148048  15.35340179
Ti    7.07718277   7.57517349  16.16921744
O    8.92811888   7.57512824  15.45313386
O    7.46658927   9.46126553  16.06322912
O    2.28553187   1.92006499  18.11770966
O    0.12449183   1.91951065  16.93774317
Ti    3.33114599   1.92069851  19.71717646
Ti    0.45841389   1.92052882  18.87070515
O    3.71989668   0.03630330  19.59573151
O    0.06123013   0.03624798  18.97864395
O    3.71968149   3.80531987  19.59551070
O    0.06135770   3.80491260  18.97868076
O    7.40043463   0.03398900  18.10655881
O    5.24293903   0.03624538  16.93292217
Ti    5.56613966   0.03750135  18.86647298
Ti    8.44957373   0.03859849  19.68276705
O    5.17759391   1.92076639  18.97661987
O    8.84503620   1.92067589  19.57773557
O    7.40018871   3.80578370  18.10630120
O    5.24278533   3.80315909  16.93266456
Ti    5.56537113   3.80433564  18.86540574
Ti    8.45004509   3.80276313  19.68173661
O    2.28031615   5.69012224  18.10666921
O    0.12092792   5.68954527  16.93251736
Ti    3.32395260   5.69104990  19.68707283
Ti    0.44550984   5.69108384  18.86643618
O    2.28025466   9.46315481  18.10714763
O    0.12095559   9.46274754  16.93266456
Ti    3.32398334   9.46379965  19.68755125
Ti    0.44555698   9.46381096  18.86676739
O    3.71860556   7.57741346  19.58988007
O    0.05586326   7.57726639  18.97172527
O    5.17690736   5.69051819  18.97172527
O    8.84156247   5.69014486  19.58049569
O    7.40070106   7.57664418  18.10287866
O    5.24251891   7.57629347  16.93097169
Ti    5.56585274   7.57753790  18.86558975
Ti    8.44823137   7.57727771  19.67890290
O    5.17707132   9.46402591  18.97224049
O    8.84165469   9.46434267  19.58126852
O    3.68285378   1.92127548  21.65186811
O    1.51118657   1.92038175  20.46432051
Ti    4.71684780   1.92115103  23.24640350
Ti    1.87041565   1.92090215  22.41855376
O    5.11626562   0.03942467  23.12941154
O    2.92968903   1.92275748  24.01213232
O    1.46877424   0.03729421  22.49462246
O    5.11623488   3.80362292  23.13136202
O    1.46800571   3.80520674  22.49226717
O    8.78807313   0.04447819  21.61024562
O    6.62329191   0.04563676  20.45309605
Ti    6.95889141   0.04063630  22.40247151
Ti    9.83921039   0.03806180  23.14659784
O    6.58173008   1.92179588  22.51997870
O   10.24393615   1.92156962  23.09923431
O    8.78743781   3.79819268  21.60947278
O    6.62276931   3.79717451  20.45269124
Ti    6.95661657   3.80283101  22.39941698
Ti    9.84109584   3.80451665  23.14387453
O    8.05481830   3.81418926  23.96521040
O    8.05482855   0.02882847  23.96679287
O    3.66604870   5.68662652  21.61988761
O    1.50213847   5.69436461  20.45059355
Ti    4.70308608   5.69091415  23.16948837
Ti    1.84715496   5.69367452  22.40663008
O    2.91757708   5.68816509  23.98515682
O    3.66605894   9.46950140  21.62051323
O    1.50222045   9.46152573  20.45140318
Ti    4.70457190   9.46560973  23.16912035
Ti    1.84724718   9.46277016  22.40721890
O    5.10571121   7.57854476  23.09375088
O    2.91978018   9.46531559  23.98633446
O    1.46241085   7.57814881  22.48796139
O    6.57179049   5.69009961  22.48247797
O   10.23428347   5.69138929  23.08039194
O    8.78406655   7.57761710  21.60689668
O    6.62266684   7.57754922  20.44625097
Ti    6.95871721   7.57812618  22.40070503
Ti    9.82738535   7.57789992  23.14788589
O    6.57263074   9.46593780  22.48225716
O   10.23450891   9.46453499  23.08182720
O    8.04691786   7.57826194  23.96399595
Ti    3.31034458   1.92228233  26.04946336
Ti    0.91895403   0.04540518  26.61271031
O    4.43081305   1.92695460  27.52266420
O    2.87370967   0.03803295  26.04758648
O    1.42802192   1.92090215  26.83569060
Ti    0.91166944   3.79372405  26.61701609
O    2.86830950   3.80436958  26.04846971
O    0.02144072   3.81455128  25.08474883
O    0.02163541   0.03182426  25.08408641
O    5.13849136   1.91773451  25.18610017
Ti    8.38340885   0.04548312  25.96099255
Ti    6.08393082   1.92306293  26.77143518
O    7.97228896   1.92051751  25.93869084
O    6.58720197   0.01145430  26.82902953
O    9.52368476   0.06583035  27.43824156
Ti    8.37872597   3.79932398  25.94958408
O    6.58136118   3.83430378  26.80301087
O    9.51017922   3.75898182  27.43831516
Ti    3.27087314   5.68568754  26.02348150
O    4.45160421   5.69282604  27.44324656
O    1.42750957   5.68538209  26.82122761
Ti    3.27269711   9.46722749  26.02153102
Ti    0.93525599   7.57671205  26.59960898
O    4.45104063   9.45748699  27.44453462
O    2.87350473   7.57612378  26.01998535
O    1.43204899   9.46786101  26.81725305
O    0.01851920   7.57732296  25.07518044
O    5.12988388   5.70090353  25.08438082
O    5.13457701   9.46149179  25.08629450
Ti    6.06633672   5.70792890  26.59556081
O    8.01330771   5.69935364  25.97335785
Ti    8.41178279   7.57943849  25.99576997
Ti    6.06725895   9.45065394  26.59935137
O    8.01013113   9.45894637  25.97170179
O    6.58985595   7.57957424  26.82453975
O    9.56510314   7.58124857  27.43820476
O    7.22101991   1.96210409  28.70848213
H    7.88312982   2.67194959  28.66016177
H    7.74988808   1.15356398  28.76250674
